l=335;
a=2;
setup_costs=[|1,3,
|3,1,
|0,0|];
setup_times=[|1,1,
|1,1,
|0,0|];
m=2;
min_cap=[0,0];
max_cap=[38,30];

initState=[2,1];
s=5;
m_a_s = [|182,213,312,321,326,
|0,0,235,292,310|];
m_a_e = [|193,281,320,325,331,
|0,0,283,309,319|];
n=10;
eligible_machine = [{2},
{2},
{1,2},
{2},
{2,1},
{1},
{1},
{2},
{2,1},
{2}];
earliest_start=[3,0,2,1,1,6,0,3,3,7];
latest_end=[32,27,11,29,29,50,14,19,45,23];
min_time=[10,6,3,10,9,9,8,4,9,4];
max_time=[10,9,6,10,9,9,10,5,10,10];
size=[12,4,12,2,11,13,19,10,14,6];
attribute=[1,2,2,2,1,1,2,1,2,1];

upper_bound_integer_objective=25200;
mult_factor_total_runtime=12;
mult_factor_finished_toolate=2400;
mult_factor_total_setuptimes=0;
mult_factor_total_setupcosts=8;
running_time_bound=72;
min_duration=3;
max_duration=10;
max_setup_time=1;
max_setup_cost=3;
